\ Model prob_80
\ LP format - for model browsing. Use MPS format to capture full model detail.
Minimize
  151000 open[0] + 192000 open[1] + 114000 open[2] + 171000 open[3]
   + 160000 open[4] + 120000 open[5] + 182000 open[6] + 186000 open[7]
   + 3 x[0,0] + 3 x[0,1] + 5 x[0,2] + 4 x[0,3] + 3 x[0,4] + 5 x[0,5]
   + 2 x[0,6] + 4 x[0,7] + 2 x[0,8] + 4 x[1,0] + 5 x[1,1] + x[1,2]
   + 4 x[1,3] + 2 x[1,4] + 5 x[1,5] + 4 x[1,6] + x[1,7] + x[1,8] + 3 x[2,0]
   + 3 x[2,1] + 2 x[2,2] + 4 x[2,3] + 4 x[2,4] + 3 x[2,5] + 4 x[2,6]
   + 4 x[2,7] + x[2,8] + 3 x[3,0] + 5 x[3,1] + 3 x[3,2] + 5 x[3,3] + x[3,4]
   + 2 x[3,5] + 4 x[3,6] + x[3,7] + 4 x[3,8] + 2 x[4,0] + 2 x[4,1] + x[4,2]
   + 2 x[4,3] + 5 x[4,4] + 2 x[4,5] + 4 x[4,6] + 4 x[4,7] + 4 x[4,8]
   + 4 x[5,0] + 5 x[5,1] + 3 x[5,2] + x[5,3] + 4 x[5,4] + 2 x[5,5]
   + 4 x[5,6] + 2 x[5,7] + 2 x[5,8] + 4 x[6,0] + 5 x[6,1] + 2 x[6,2]
   + 2 x[6,3] + 4 x[6,4] + 2 x[6,5] + 2 x[6,6] + 4 x[6,7] + 4 x[6,8]
   + x[7,0] + 5 x[7,1] + 5 x[7,2] + 2 x[7,3] + 5 x[7,4] + 2 x[7,5] + x[7,6]
   + 4 x[7,7] + 4 x[7,8]
Subject To
 R0: x[0,0] + x[1,0] + x[2,0] + x[3,0] + x[4,0] + x[5,0] + x[6,0] + x[7,0]
   >= 779
 R1: x[0,1] + x[1,1] + x[2,1] + x[3,1] + x[4,1] + x[5,1] + x[6,1] + x[7,1]
   >= 892
 R2: x[0,2] + x[1,2] + x[2,2] + x[3,2] + x[4,2] + x[5,2] + x[6,2] + x[7,2]
   >= 440
 R3: x[0,3] + x[1,3] + x[2,3] + x[3,3] + x[4,3] + x[5,3] + x[6,3] + x[7,3]
   >= 556
 R4: x[0,4] + x[1,4] + x[2,4] + x[3,4] + x[4,4] + x[5,4] + x[6,4] + x[7,4]
   >= 414
 R5: x[0,5] + x[1,5] + x[2,5] + x[3,5] + x[4,5] + x[5,5] + x[6,5] + x[7,5]
   >= 464
 R6: x[0,6] + x[1,6] + x[2,6] + x[3,6] + x[4,6] + x[5,6] + x[6,6] + x[7,6]
   >= 920
 R7: x[0,7] + x[1,7] + x[2,7] + x[3,7] + x[4,7] + x[5,7] + x[6,7] + x[7,7]
   >= 743
 R8: x[0,8] + x[1,8] + x[2,8] + x[3,8] + x[4,8] + x[5,8] + x[6,8] + x[7,8]
   >= 528
 R9: - 1447 open[0] + x[0,0] + x[0,1] + x[0,2] + x[0,3] + x[0,4] + x[0,5]
   + x[0,6] + x[0,7] + x[0,8] <= 0
 R10: - 1886 open[1] + x[1,0] + x[1,1] + x[1,2] + x[1,3] + x[1,4] + x[1,5]
   + x[1,6] + x[1,7] + x[1,8] <= 0
 R11: - 1962 open[2] + x[2,0] + x[2,1] + x[2,2] + x[2,3] + x[2,4] + x[2,5]
   + x[2,6] + x[2,7] + x[2,8] <= 0
 R12: - 1392 open[3] + x[3,0] + x[3,1] + x[3,2] + x[3,3] + x[3,4] + x[3,5]
   + x[3,6] + x[3,7] + x[3,8] <= 0
 R13: - 1191 open[4] + x[4,0] + x[4,1] + x[4,2] + x[4,3] + x[4,4] + x[4,5]
   + x[4,6] + x[4,7] + x[4,8] <= 0
 R14: - 1218 open[5] + x[5,0] + x[5,1] + x[5,2] + x[5,3] + x[5,4] + x[5,5]
   + x[5,6] + x[5,7] + x[5,8] <= 0
 R15: - 1088 open[6] + x[6,0] + x[6,1] + x[6,2] + x[6,3] + x[6,4] + x[6,5]
   + x[6,6] + x[6,7] + x[6,8] <= 0
 R16: - 1178 open[7] + x[7,0] + x[7,1] + x[7,2] + x[7,3] + x[7,4] + x[7,5]
   + x[7,6] + x[7,7] + x[7,8] <= 0
Bounds
Binaries
 open[0] open[1] open[2] open[3] open[4] open[5] open[6] open[7]
End
